130 7006
1 129 124 26 88 86 69 64 61 109 5 11 76 45 16 128 105 62 28 115 112 117 83 3 114 21 33 37 40 42 58 49 72 91 92 73 99 74 75 52 9 57 82 123 111 101 56 65 87 12 81 103 77 119 84 36 32 113 94 89 29 24 116 95 79 38 106 53 120 60 51 44 4 35 54 17 34 127 104 43 107 97 7 70 63 68 25 48 98 110 15 100 19 27 31 2 80 46 18 108 8 126 30 59 90 125 85 66 78 121 13 96 67 14 10 102 6 55 122 23 47 22 93 20 118 50 130 71 39 41 
